22
3 0 1 0
3 0 2 0
3 0 7 0
3 0 21 0
3 0 9 0
3 0 5 0
3 0 6 0
5 0 13 14 10 0
3 0 17 0
3 0 12 0
3 0 3 0
3 0 18 0
4 0 19 11 0
3 0 8 0
4 0 16 15 0
3 0 20 0
4 0 4 34 0
3 0 32 0
6 0 29 31 26 36 0
4 0 33 22 0
5 0 23 28 30 0
6 0 24 27 25 35 0
